Problem:    
Rows:       9
Columns:    49 (49 integer, 49 binary)
Non-zeros:  198
Status:     INTEGER OPTIMAL
Objective:  score = 7850 (MAXimum)

   No.   Row name        Activity     Lower bound   Upper bound
------ ------------    ------------- ------------- -------------
     1 index_0                     2             0               
     2 index_1                     1             0               
     3 index_2                     2             0               
     4 index_3                     0             0               
     5 index_4                     0             0               
     6 index_5                     0             0               
     7 index_6                     0             0               
     8 index_7                     2             0               
     9 length                      3                        2000 

   No. Column name       Activity     Lower bound   Upper bound
------ ------------    ------------- ------------- -------------
     1 c0           *              1             0             1 
     2 c1           *              1             0             1 
     3 c2           *              1             0             1 
     4 c3           *              1             0             1 
     5 c4           *              1             0             1 
     6 c5           *              1             0             1 
     7 c6           *              1             0             1 
     8 c7           *              1             0             1 
     9 s0           *              0             0             1 
    10 s1           *              0             0             1 
    11 s4           *              0             0             1 
    12 s5           *              1             0             1 
    13 s6           *              0             0             1 
    14 s7           *              1             0             1 
    15 s8           *              0             0             1 
    16 s9           *              0             0             1 
    17 s10          *              0             0             1 
    18 s11          *              0             0             1 
    19 s12          *              0             0             1 
    20 s13          *              0             0             1 
    21 s14          *              0             0             1 
    22 s15          *              0             0             1 
    23 s16          *              0             0             1 
    24 s18          *              0             0             1 
    25 s19          *              0             0             1 
    26 s22          *              0             0             1 
    27 s23          *              0             0             1 
    28 s25          *              0             0             1 
    29 s26          *              0             0             1 
    30 s27          *              0             0             1 
    31 s28          *              0             0             1 
    32 s30          *              0             0             1 
    33 s31          *              0             0             1 
    34 s34          *              1             0             1 
    35 s35          *              0             0             1 
    36 s36          *              0             0             1 
    37 s37          *              0             0             1 
    38 s38          *              0             0             1 
    39 s39          *              0             0             1 
    40 s2           *              0             0             1 
    41 s3           *              0             0             1 
    42 s17          *              0             0             1 
    43 s20          *              0             0             1 
    44 s24          *              0             0             1 
    45 s29          *              0             0             1 
    46 s33          *              0             0             1 
    47 s40          *              0             0             1 
    48 s21          *              0             0             1 
    49 s32          *              0             0             1 

Integer feasibility conditions:

KKT.PE: max.abs.err = 0.00e+00 on row 0
        max.rel.err = 0.00e+00 on row 0
        High quality

KKT.PB: max.abs.err = 0.00e+00 on row 0
        max.rel.err = 0.00e+00 on row 0
        High quality

End of output
